p cnf 128 385
c t mc
-1 2 0
1 2 0
-5 3 0
-5 -4 0
-3 4 5 0
6 -2 0
6 5 0
2 -5 -6 0
11 9 0
11 -10 0
-9 10 -11 0
12 8 0
12 11 0
-8 -11 -12 0
13 7 0
13 12 0
-7 -12 -13 0
16 14 0
16 15 0
-14 -15 -16 0
17 16 0
17 9 0
-16 -9 -17 0
18 -13 0
18 -17 0
13 17 -18 0
-19 -6 0
-19 -18 0
6 18 19 0
23 -21 0
23 22 0
21 -22 -23 0
24 20 0
24 23 0
-20 -23 -24 0
-25 -19 0
-25 24 0
19 -24 25 0
-26 -23 0
-26 -1 0
23 1 26 0
-27 15 0
-27 26 0
-15 -26 27 0
28 1 0
28 23 0
-1 -23 -28 0
30 28 0
30 -29 0
-28 29 -30 0
27 -30 -31 0
-27 30 -31 0
27 30 31 0
-27 -30 31 0
-14 -8 -32 0
14 8 -32 0
-14 8 32 0
14 -8 32 0
33 32 0
33 -20 0
-32 20 -33 0
34 -13 0
34 17 0
13 -17 -34 0
33 34 -35 0
-33 -34 -35 0
33 -34 35 0
-33 34 35 0
36 31 0
36 35 0
-31 -35 -36 0
38 -37 0
38 -15 0
37 15 -38 0
39 -8 -40 0
-39 8 -40 0
39 8 40 0
-39 -8 40 0
41 40 0
41 -7 0
-40 7 -41 0
-38 41 -42 0
38 -41 -42 0
-38 -41 42 0
38 41 42 0
41 43 -44 0
-41 -43 -44 0
41 -43 44 0
-41 43 44 0
-41 44 -45 0
41 -44 -45 0
-41 -44 45 0
41 44 45 0
-46 45 0
-46 38 0
-45 -38 46 0
-47 -46 0
-47 41 0
46 -41 47 0
-47 -4 -48 0
47 4 -48 0
-47 4 48 0
47 -4 48 0
42 48 -49 0
-42 -48 -49 0
42 -48 49 0
-42 48 49 0
-50 -8 0
-50 39 0
8 -39 50 0
-51 -49 0
-51 50 0
49 -50 51 0
52 12 0
52 21 0
-12 -21 -52 0
21 -20 -53 0
-21 20 -53 0
21 20 53 0
-21 -20 53 0
55 -40 0
55 54 0
40 -54 -55 0
-53 55 -56 0
53 -55 -56 0
-53 -55 56 0
53 55 56 0
57 -32 0
57 11 0
32 -11 -57 0
-56 57 -58 0
56 -57 -58 0
-56 -57 58 0
56 57 58 0
-59 -52 0
-59 -58 0
52 58 59 0
60 -51 0
60 -59 0
51 59 -60 0
-61 36 0
-61 -60 0
-36 60 61 0
-62 40 0
-62 8 0
-40 -8 62 0
-63 -62 0
-63 -54 0
62 54 63 0
64 3 0
64 -20 0
-3 20 -64 0
-65 -63 0
-65 -64 0
63 64 65 0
61 65 -66 0
-61 -65 -66 0
61 -65 66 0
-61 65 66 0
33 -38 -67 0
-33 38 -67 0
33 38 67 0
-33 -38 67 0
-69 68 0
-69 17 0
-68 -17 69 0
8 69 -70 0
-8 -69 -70 0
8 -69 70 0
-8 69 70 0
-54 -71 -72 0
54 71 -72 0
-54 71 72 0
54 -71 72 0
-70 -72 -73 0
70 72 -73 0
-70 72 73 0
70 -72 73 0
74 29 0
74 -1 0
-29 1 -74 0
75 26 0
75 74 0
-26 -74 -75 0
76 -73 0
76 75 0
73 -75 -76 0
-77 34 0
-77 -37 0
-34 37 77 0
-55 68 -78 0
55 -68 -78 0
-55 -68 78 0
55 68 78 0
79 78 0
79 69 0
-78 -69 -79 0
-80 77 0
-80 79 0
-77 -79 80 0
81 -76 0
81 80 0
76 -80 -81 0
-82 -46 0
-82 -39 0
46 39 82 0
-83 -81 0
-83 -82 0
81 82 83 0
84 67 0
84 -83 0
-67 83 -84 0
7 -21 -85 0
-7 21 -85 0
7 21 85 0
-7 -21 85 0
-87 -86 0
-87 -44 0
86 44 87 0
-88 85 0
-88 87 0
-85 -87 88 0
-90 89 0
-90 -38 0
-89 38 90 0
-91 -3 0
-91 -55 0
3 55 91 0
68 91 -92 0
-68 -91 -92 0
68 -91 92 0
-68 91 92 0
90 92 -93 0
-90 -92 -93 0
90 -92 93 0
-90 92 93 0
-94 -88 0
-94 93 0
88 -93 94 0
84 94 -95 0
-84 -94 -95 0
84 -94 95 0
-84 94 95 0
-20 -5 -96 0
20 5 -96 0
-20 5 96 0
20 -5 96 0
-9 -8 -97 0
9 8 -97 0
-9 8 97 0
9 -8 97 0
-98 97 0
-98 96 0
-97 -96 98 0
-99 -96 0
-99 -98 0
96 98 99 0
-14 40 -100 0
14 -40 -100 0
-14 -40 100 0
14 40 100 0
102 38 0
102 101 0
-38 -101 -102 0
38 -102 -103 0
-38 102 -103 0
38 102 103 0
-38 -102 103 0
104 -103 0
104 12 0
103 -12 -104 0
-105 100 0
-105 104 0
-100 -104 105 0
-106 99 0
-106 105 0
-99 -105 106 0
107 -9 0
107 102 0
9 -102 -107 0
-108 16 0
-108 68 0
-16 -68 108 0
109 107 0
109 -108 0
-107 108 -109 0
106 -109 -110 0
-106 109 -110 0
106 109 110 0
-106 -109 110 0
95 -110 -111 0
-95 110 -111 0
95 110 111 0
-95 -110 111 0
-112 66 0
-112 111 0
-66 -111 112 0
25 112 -113 0
-25 -112 -113 0
25 -112 113 0
-25 112 113 0
114 26 0
114 101 0
-26 -101 -114 0
41 38 -115 0
-41 -38 -115 0
41 -38 115 0
-41 38 115 0
-116 114 0
-116 115 0
-114 -115 116 0
117 22 0
117 -43 0
-22 43 -117 0
118 45 0
118 -101 0
-45 101 -118 0
-119 117 0
-119 118 0
-117 -118 119 0
-16 -5 -120 0
16 5 -120 0
-16 5 120 0
16 -5 120 0
121 119 0
121 -120 0
-119 120 -121 0
122 -116 0
122 121 0
116 -121 -122 0
-123 -89 0
-123 3 0
89 -3 123 0
-7 89 -124 0
7 -89 -124 0
-7 -89 124 0
7 89 124 0
-125 123 0
-125 -124 0
-123 124 125 0
126 29 0
126 -125 0
-29 125 -126 0
127 122 0
127 -126 0
-122 126 -127 0
-128 113 0
-128 -127 0
-113 127 128 0
15 -23 104 127 115 -126 0
42 93 -15 91 -24 0
-123 -102 76 -81 26 35 58 20 -5 0
-128 16 81 -51 -8 103 -38 55 0
-19 45 119 74 20 -7 -58 105 -18 0
-42 23 13 -47 -37 -52 -24 0
-93 8 25 96 15 107 0
66 -28 23 0
68 92 -77 -127 -64 -97 -87 53 0
-8 -59 80 84 -24 -20 105 -75 5 0
39 2 -125 113 77 48 -27 -31 41 0
-123 117 -121 33 0
118 -60 121 0
4 -112 111 -113 -56 0
-111 -43 -113 0
-119 -70 -17 -84 0
127 15 -47 -45 52 0
64 -14 86 -59 -43 56 0
-18 62 94 0
-115 78 -119 21 -74 -36 0
-33 38 58 -116 0
-91 24 -71 -80 -6 0
48 6 42 121 108 112 0
67 -74 -96 98 54 0
6 -65 -99 0
63 42 -100 -83 -99 107 94 -37 -1 -75 0
-96 122 61 31 10 -90 -59 109 18 91 0
122 83 -33 -51 97 81 90 0
-98 65 32 -16 -30 84 61 -116 -118 -92 0
98 -29 -77 -28 69 -7 -79 -114 34 0
-27 37 -74 0
93 84 97 36 108 -28 -2 1 82 -12 0
67 85 -88 99 14 71 -104 -26 -76 0
-90 101 -14 70 104 126 -102 31 0
-27 84 -82 59 -23 124 -80 69 -102 -28 0
128 0
